(benchmark gametime
:status unknown
:logic QF_AUFBV
:extrafuns ((gtINDEX101  BitVec[32]))
:extrafuns ((gtFIELD__bitsForTID0__gtAGG____anonstruct_D_Work_4  Array[32:32]))
:extrafuns ((gtINDEX102  BitVec[32]))
:extrafuns ((gtAGG__rtDWork  BitVec[32]))
:extrafuns ((gtINDEX99  BitVec[32]))
:extrafuns ((gtINDEX100  BitVec[32]))
:extrafuns ((gtINDEX97  BitVec[32]))
:extrafuns ((gtINDEX98  BitVec[32]))
:extrafuns ((gtINDEX95  BitVec[32]))
:extrafuns ((gtINDEX96  BitVec[32]))
:extrafuns ((gtINDEX94  BitVec[32]))
:extrafuns ((gtINDEX93  BitVec[32]))
:extrafuns ((gtINDEX92  BitVec[32]))
:extrafuns ((gtINDEX91  BitVec[32]))
:extrafuns ((gtINDEX89  BitVec[32]))
:extrafuns ((gtINDEX90  BitVec[32]))
:extrafuns ((gtINDEX87  BitVec[32]))
:extrafuns ((gtINDEX88  BitVec[32]))
:extrafuns ((gtINDEX85  BitVec[32]))
:extrafuns ((gtINDEX86  BitVec[32]))
:extrafuns ((gtINDEX84  BitVec[32]))
:extrafuns ((gtINDEX82  BitVec[32]))
:extrafuns ((gtINDEX83  BitVec[32]))
:extrafuns ((gtINDEX80  BitVec[32]))
:extrafuns ((gtINDEX81  BitVec[32]))
:extrafuns ((gtINDEX78  BitVec[32]))
:extrafuns ((gtINDEX79  BitVec[32]))
:extrafuns ((gtINDEX76  BitVec[32]))
:extrafuns ((gtINDEX77  BitVec[32]))
:extrafuns ((gtINDEX75  BitVec[32]))
:extrafuns ((gtINDEX73  BitVec[32]))
:extrafuns ((gtINDEX74  BitVec[32]))
:extrafuns ((gtINDEX72  BitVec[32]))
:extrafuns ((gtINDEX70  BitVec[32]))
:extrafuns ((gtINDEX71  BitVec[32]))
:extrafuns ((gtINDEX68  BitVec[32]))
:extrafuns ((gtINDEX69  BitVec[32]))
:extrafuns ((gtINDEX66  BitVec[32]))
:extrafuns ((gtINDEX67  BitVec[32]))
:extrafuns ((gtINDEX64  BitVec[32]))
:extrafuns ((gtINDEX65  BitVec[32]))
:extrafuns ((gtINDEX62  BitVec[32]))
:extrafuns ((gtINDEX63  BitVec[32]))
:extrafuns ((gtINDEX60  BitVec[32]))
:extrafuns ((gtINDEX61  BitVec[32]))
:extrafuns ((gtINDEX59  BitVec[32]))
:extrafuns ((gtINDEX57  BitVec[32]))
:extrafuns ((gtINDEX58  BitVec[32]))
:extrafuns ((gtINDEX55  BitVec[32]))
:extrafuns ((gtINDEX56  BitVec[32]))
:extrafuns ((gtINDEX53  BitVec[32]))
:extrafuns ((gtINDEX54  BitVec[32]))
:extrafuns ((gtINDEX51  BitVec[32]))
:extrafuns ((gtINDEX52  BitVec[32]))
:extrafuns ((gtINDEX49  BitVec[32]))
:extrafuns ((gtINDEX50  BitVec[32]))
:extrafuns ((gtINDEX48  BitVec[32]))
:extrafuns ((gtINDEX47  BitVec[32]))
:extrafuns ((gtINDEX45  BitVec[32]))
:extrafuns ((gtINDEX46  BitVec[32]))
:extrafuns ((gtINDEX43  BitVec[32]))
:extrafuns ((gtINDEX44  BitVec[32]))
:extrafuns ((gtINDEX41  BitVec[32]))
:extrafuns ((gtINDEX42  BitVec[32]))
:extrafuns ((gtINDEX40  BitVec[32]))
:extrafuns ((gtINDEX38  BitVec[32]))
:extrafuns ((gtINDEX39  BitVec[32]))
:extrafuns ((gtINDEX36  BitVec[32]))
:extrafuns ((gtINDEX37  BitVec[32]))
:extrafuns ((gtINDEX34  BitVec[32]))
:extrafuns ((gtINDEX35  BitVec[32]))
:extrafuns ((gtINDEX32  BitVec[32]))
:extrafuns ((gtINDEX33  BitVec[32]))
:extrafuns ((gtINDEX30  BitVec[32]))
:extrafuns ((gtINDEX31  BitVec[32]))
:extrafuns ((gtINDEX28  BitVec[32]))
:extrafuns ((gtINDEX29  BitVec[32]))
:extrafuns ((gtINDEX26  BitVec[32]))
:extrafuns ((gtINDEX27  BitVec[32]))
:extrafuns ((gtINDEX24  BitVec[32]))
:extrafuns ((gtINDEX25  BitVec[32]))
:extrafuns ((gtINDEX22  BitVec[32]))
:extrafuns ((gtINDEX23  BitVec[32]))
:extrafuns ((gtINDEX20  BitVec[32]))
:extrafuns ((gtINDEX21  BitVec[32]))
:extrafuns ((gtINDEX19  BitVec[32]))
:extrafuns ((gtINDEX17  BitVec[32]))
:extrafuns ((gtINDEX18  BitVec[32]))
:extrafuns ((gtINDEX15  BitVec[32]))
:extrafuns ((gtINDEX16  BitVec[32]))
:extrafuns ((gtINDEX13  BitVec[32]))
:extrafuns ((gtINDEX14  BitVec[32]))
:extrafuns ((gtINDEX11  BitVec[32]))
:extrafuns ((gtINDEX12  BitVec[32]))
:extrafuns ((gtINDEX9  BitVec[32]))
:extrafuns ((gtINDEX10  BitVec[32]))
:extrafuns ((gtINDEX8  BitVec[32]))
:extrafuns ((gtINDEX7  BitVec[32]))
:extrafuns ((gtINDEX6  BitVec[32]))
:extrafuns ((gtINDEX5  BitVec[32]))
:extrafuns ((gtINDEX4  BitVec[32]))
:extrafuns ((gtINDEX3  BitVec[32]))
:extrafuns ((gtINDEX2  BitVec[32]))
:extrafuns ((gtINDEX1  BitVec[32]))
:extrafuns ((gtINDEX0  BitVec[32]))
:extrafuns ((gtFIELD__is_Eng__gtAGG____anonstruct_bitsForTID0_5_1_  Array[32:1]))
:extrafuns ((gtFIELD__is_Eng__gtAGG____anonstruct_bitsForTID0_5_2_  Array[32:1]))
:extrafuns ((sf_previousEvent_1_  BitVec[32]))
:extrafuns ((sfEvent__2_  BitVec[32]))
:extrafuns ((gtFIELD__is_Eng__gtAGG____anonstruct_bitsForTID0_5  Array[32:1]))
:extrafuns ((gtFIELD__sent__gtAGG____anonstruct_D_Work_4_1_  Array[32:32]))
:extrafuns ((gtFIELD__sent__gtAGG____anonstruct_D_Work_4_2_  Array[32:32]))
:extrafuns ((gtFIELD__is_active_Eng__gtAGG____anonstruct_bitsForTID0_5  Array[32:1]))
:extrafuns ((gtFIELD__is_active_PURI__gtAGG____anonstruct_bitsForTID0_5  Array[32:1]))
:extrafuns ((gtFIELD__is_PVRP__gtAGG____anonstruct_bitsForTID0_5  Array[32:2]))
:extrafuns ((gtFIELD__is_active_PVRP__gtAGG____anonstruct_bitsForTID0_5  Array[32:1]))
:extrafuns ((gtFIELD__temporalCounter_i3__gtAGG____anonstruct_D_Work_4_1_  Array[32:32]))
:extrafuns ((gtFIELD__temporalCounter_i3__gtAGG____anonstruct_D_Work_4_2_  Array[32:32]))
:extrafuns ((gtFIELD__is_PPVARP__gtAGG____anonstruct_bitsForTID0_5  Array[32:2]))
:extrafuns ((gtFIELD__is_PPVARP__gtAGG____anonstruct_bitsForTID0_5_1_  Array[32:2]))
:extrafuns ((gtFIELD__n_t_b__gtAGG____anonstruct_D_Work_4  Array[32:32]))
:extrafuns ((gtFIELD__n_t_b__gtAGG____anonstruct_D_Work_4_1_  Array[32:32]))
:extrafuns ((sfEvent__1_  BitVec[32]))
:extrafuns ((gtFIELD__is_active_PPVARP__gtAGG____anonstruct_bitsForTID0_5  Array[32:1]))
:extrafuns ((gtFIELD__is_PLRI__gtAGG____anonstruct_bitsForTID0_5_1_  Array[32:2]))
:extrafuns ((gtFIELD__is_PLRI__gtAGG____anonstruct_bitsForTID0_5_2_  Array[32:2]))
:extrafuns ((gtFIELD__is_active_PLRI__gtAGG____anonstruct_bitsForTID0_5  Array[32:1]))
:extrafuns ((gtFIELD__is_PAVI__gtAGG____anonstruct_bitsForTID0_5  Array[32:3]))
:extrafuns ((gtFIELD__is_active_PAVI__gtAGG____anonstruct_bitsForTID0_5  Array[32:1]))
:extrafuns ((sfEvent_  BitVec[32]))
:extrafuns ((gtFIELD__sent__gtAGG____anonstruct_D_Work_4  Array[32:32]))
:extrafuns ((gtFIELD__is_PLRI__gtAGG____anonstruct_bitsForTID0_5  Array[32:2]))
:extrafuns ((gtFIELD__temporalCounter_i5__gtAGG____anonstruct_D_Work_4  Array[32:32]))
:extrafuns ((gtFIELD__temporalCounter_i4__gtAGG____anonstruct_D_Work_4  Array[32:32]))
:extrafuns ((gtFIELD__temporalCounter_i3__gtAGG____anonstruct_D_Work_4  Array[32:32]))
:extrafuns ((gtFIELD__temporalCounter_i2__gtAGG____anonstruct_D_Work_4  Array[32:32]))
:extrafuns ((gtFIELD__temporalCounter_i1__gtAGG____anonstruct_D_Work_4  Array[32:32]))
:extrafuns ((gtFIELD__temporalCounter_i1__gtAGG____anonstruct_D_Work_4_1_  Array[32:32]))
:extrapreds ((constraint172 ))
:extrapreds ((constraint171 ))
:extrapreds ((constraint170 ))
:extrapreds ((constraint169 ))
:extrapreds ((constraint168 ))
:extrapreds ((constraint167 ))
:extrapreds ((constraint166 ))
:extrapreds ((constraint165 ))
:extrapreds ((constraint164 ))
:extrapreds ((constraint163 ))
:extrapreds ((constraint162 ))
:extrapreds ((constraint161 ))
:extrapreds ((constraint160 ))
:extrapreds ((constraint159 ))
:extrapreds ((constraint158 ))
:extrapreds ((constraint157 ))
:extrapreds ((constraint156 ))
:extrapreds ((constraint155 ))
:extrapreds ((constraint154 ))
:extrapreds ((constraint153 ))
:extrapreds ((constraint152 ))
:extrapreds ((constraint151 ))
:extrapreds ((constraint150 ))
:extrapreds ((constraint149 ))
:extrapreds ((constraint148 ))
:extrapreds ((constraint147 ))
:extrapreds ((constraint146 ))
:extrapreds ((constraint145 ))
:extrapreds ((constraint144 ))
:extrapreds ((constraint143 ))
:extrapreds ((constraint142 ))
:extrapreds ((constraint141 ))
:extrapreds ((constraint140 ))
:extrapreds ((constraint139 ))
:extrapreds ((constraint138 ))
:extrapreds ((constraint137 ))
:extrapreds ((constraint136 ))
:extrapreds ((constraint135 ))
:extrapreds ((constraint134 ))
:extrapreds ((constraint133 ))
:extrapreds ((constraint132 ))
:extrapreds ((constraint131 ))
:extrapreds ((constraint130 ))
:extrapreds ((constraint129 ))
:extrapreds ((constraint128 ))
:extrapreds ((constraint127 ))
:extrapreds ((constraint126 ))
:extrapreds ((constraint125 ))
:extrapreds ((constraint124 ))
:extrapreds ((constraint123 ))
:extrapreds ((constraint122 ))
:extrapreds ((constraint121 ))
:extrapreds ((constraint120 ))
:extrapreds ((constraint119 ))
:extrapreds ((constraint118 ))
:extrapreds ((constraint117 ))
:extrapreds ((constraint116 ))
:extrapreds ((constraint115 ))
:extrapreds ((constraint114 ))
:extrapreds ((constraint113 ))
:extrapreds ((constraint112 ))
:extrapreds ((constraint111 ))
:extrapreds ((constraint110 ))
:extrapreds ((constraint109 ))
:extrapreds ((constraint108 ))
:extrapreds ((constraint107 ))
:extrapreds ((constraint106 ))
:extrapreds ((constraint105 ))
:extrapreds ((constraint104 ))
:extrapreds ((constraint103 ))
:extrapreds ((constraint102 ))
:extrapreds ((constraint101 ))
:extrapreds ((constraint100 ))
:extrapreds ((constraint99 ))
:extrapreds ((constraint98 ))
:extrapreds ((constraint97 ))
:extrapreds ((constraint96 ))
:extrapreds ((constraint95 ))
:extrapreds ((constraint94 ))
:extrapreds ((constraint93 ))
:extrapreds ((constraint92 ))
:extrapreds ((constraint91 ))
:extrapreds ((constraint90 ))
:extrapreds ((constraint89 ))
:extrapreds ((constraint88 ))
:extrapreds ((constraint87 ))
:extrapreds ((constraint86 ))
:extrapreds ((constraint85 ))
:extrapreds ((constraint84 ))
:extrapreds ((constraint83 ))
:extrapreds ((constraint82 ))
:extrapreds ((constraint81 ))
:extrapreds ((constraint80 ))
:extrapreds ((constraint79 ))
:extrapreds ((constraint78 ))
:extrapreds ((constraint77 ))
:extrapreds ((constraint76 ))
:extrapreds ((constraint75 ))
:extrapreds ((constraint74 ))
:extrapreds ((constraint73 ))
:extrapreds ((constraint72 ))
:extrapreds ((constraint71 ))
:extrapreds ((constraint70 ))
:extrapreds ((constraint69 ))
:extrapreds ((constraint68 ))
:extrapreds ((constraint67 ))
:extrapreds ((constraint66 ))
:extrapreds ((constraint65 ))
:extrapreds ((constraint64 ))
:extrapreds ((constraint63 ))
:extrapreds ((constraint62 ))
:extrapreds ((constraint61 ))
:extrapreds ((constraint60 ))
:extrapreds ((constraint59 ))
:extrapreds ((constraint58 ))
:extrapreds ((constraint57 ))
:extrapreds ((constraint56 ))
:extrapreds ((constraint55 ))
:extrapreds ((constraint54 ))
:extrapreds ((constraint53 ))
:extrapreds ((constraint52 ))
:extrapreds ((constraint51 ))
:extrapreds ((constraint50 ))
:extrapreds ((constraint49 ))
:extrapreds ((constraint48 ))
:extrapreds ((constraint47 ))
:extrapreds ((constraint46 ))
:extrapreds ((constraint45 ))
:extrapreds ((constraint44 ))
:extrapreds ((constraint43 ))
:extrapreds ((constraint42 ))
:extrapreds ((constraint41 ))
:extrapreds ((constraint40 ))
:extrapreds ((constraint39 ))
:extrapreds ((constraint38 ))
:extrapreds ((constraint37 ))
:extrapreds ((constraint36 ))
:extrapreds ((constraint35 ))
:extrapreds ((constraint34 ))
:extrapreds ((constraint33 ))
:extrapreds ((constraint32 ))
:extrapreds ((constraint31 ))
:extrapreds ((constraint30 ))
:extrapreds ((constraint29 ))
:extrapreds ((constraint28 ))
:extrapreds ((constraint27 ))
:extrapreds ((constraint26 ))
:extrapreds ((constraint25 ))
:extrapreds ((constraint24 ))
:extrapreds ((constraint23 ))
:extrapreds ((constraint22 ))
:extrapreds ((constraint21 ))
:extrapreds ((constraint20 ))
:extrapreds ((constraint19 ))
:extrapreds ((constraint18 ))
:extrapreds ((constraint17 ))
:extrapreds ((constraint16 ))
:extrapreds ((constraint15 ))
:extrapreds ((constraint14 ))
:extrapreds ((constraint13 ))
:extrapreds ((constraint12 ))
:extrapreds ((constraint11 ))
:extrapreds ((constraint10 ))
:extrapreds ((constraint9 ))
:extrapreds ((constraint8 ))
:extrapreds ((constraint7 ))
:extrapreds ((constraint6 ))
:extrapreds ((constraint5 ))
:extrapreds ((constraint4 ))
:extrapreds ((constraint3 ))
:extrapreds ((constraint2 ))
:extrapreds ((constraint1 ))
:extrapreds ((constraint0 ))
:formula
(flet ($x875 (and constraint0 constraint1 constraint2 constraint3 constraint4 constraint5 constraint6 constraint7 constraint8 constraint9 constraint10 constraint11 constraint12 constraint13 constraint14 constraint15 constraint16 constraint17 constraint18 constraint19 constraint20 constraint21 constraint22 constraint23 constraint24 constraint25 constraint26 constraint27 constraint28 constraint29 constraint30 constraint31 constraint32 constraint33 constraint34 constraint35 constraint36 constraint37 constraint38 constraint39 constraint40 constraint41 constraint42 constraint43 constraint44 constraint45 constraint46 constraint47 constraint48 constraint49 constraint50 constraint51 constraint52 constraint53 constraint54 constraint55 constraint56 constraint57 constraint58 constraint59 constraint60 constraint61 constraint62 constraint63 constraint64 constraint65 constraint66 constraint67 constraint68 constraint69 constraint70 constraint71 constraint72 constraint73 constraint74 constraint75 constraint76 constraint77 constraint78 constraint79 constraint80 constraint81 constraint82 constraint83 constraint84 constraint85 constraint86 constraint87 constraint88 constraint89 constraint90 constraint91 constraint92 constraint93 constraint94 constraint95 constraint96 constraint97 constraint98 constraint99 constraint100 constraint101 constraint102 constraint103 constraint104 constraint105 constraint106 constraint107 constraint108 constraint109 constraint110 constraint111 constraint112 constraint113 constraint114 constraint115 constraint116 constraint117 constraint118 constraint119 constraint120 constraint121 constraint122 constraint123 constraint124 constraint125 constraint126 constraint127 constraint128 constraint129 constraint130 constraint131 constraint132 constraint133 constraint134 constraint135 constraint136 constraint137 constraint138 constraint139 constraint140 constraint141 constraint142 constraint143 constraint144 constraint145 constraint146 constraint147 constraint148 constraint149 constraint150 constraint151 constraint152 constraint153 constraint154 constraint155 constraint156 constraint157 constraint158 constraint159 constraint160 constraint161 constraint162 constraint163 constraint164 constraint165 constraint166 constraint167 constraint168 constraint169 constraint170 constraint171 constraint172))
(let (?x526 (select gtFIELD__bitsForTID0__gtAGG____anonstruct_D_Work_4 gtINDEX101))
(flet ($x523 (= gtINDEX100 (select gtFIELD__bitsForTID0__gtAGG____anonstruct_D_Work_4 gtINDEX99)))
(flet ($x519 (= gtINDEX98 (select gtFIELD__bitsForTID0__gtAGG____anonstruct_D_Work_4 gtINDEX97)))
(flet ($x515 (= gtINDEX96 (select gtFIELD__bitsForTID0__gtAGG____anonstruct_D_Work_4 gtINDEX95)))
(flet ($x507 (= gtINDEX90 (select gtFIELD__bitsForTID0__gtAGG____anonstruct_D_Work_4 gtINDEX89)))
(flet ($x503 (= gtINDEX88 (select gtFIELD__bitsForTID0__gtAGG____anonstruct_D_Work_4 gtINDEX87)))
(flet ($x499 (= gtINDEX86 (select gtFIELD__bitsForTID0__gtAGG____anonstruct_D_Work_4 gtINDEX85)))
(flet ($x494 (= gtINDEX83 (select gtFIELD__bitsForTID0__gtAGG____anonstruct_D_Work_4 gtINDEX82)))
(flet ($x490 (= gtINDEX81 (select gtFIELD__bitsForTID0__gtAGG____anonstruct_D_Work_4 gtINDEX80)))
(flet ($x486 (= gtINDEX79 (select gtFIELD__bitsForTID0__gtAGG____anonstruct_D_Work_4 gtINDEX78)))
(flet ($x482 (= gtINDEX77 (select gtFIELD__bitsForTID0__gtAGG____anonstruct_D_Work_4 gtINDEX76)))
(flet ($x477 (= gtINDEX74 (select gtFIELD__bitsForTID0__gtAGG____anonstruct_D_Work_4 gtINDEX73)))
(flet ($x472 (= gtINDEX71 (select gtFIELD__bitsForTID0__gtAGG____anonstruct_D_Work_4 gtINDEX70)))
(flet ($x468 (= gtINDEX69 (select gtFIELD__bitsForTID0__gtAGG____anonstruct_D_Work_4 gtINDEX68)))
(flet ($x464 (= gtINDEX67 (select gtFIELD__bitsForTID0__gtAGG____anonstruct_D_Work_4 gtINDEX66)))
(flet ($x460 (= gtINDEX65 (select gtFIELD__bitsForTID0__gtAGG____anonstruct_D_Work_4 gtINDEX64)))
(flet ($x456 (= gtINDEX63 (select gtFIELD__bitsForTID0__gtAGG____anonstruct_D_Work_4 gtINDEX62)))
(flet ($x452 (= gtINDEX61 (select gtFIELD__bitsForTID0__gtAGG____anonstruct_D_Work_4 gtINDEX60)))
(flet ($x447 (= gtINDEX58 (select gtFIELD__bitsForTID0__gtAGG____anonstruct_D_Work_4 gtINDEX57)))
(flet ($x443 (= gtINDEX56 (select gtFIELD__bitsForTID0__gtAGG____anonstruct_D_Work_4 gtINDEX55)))
(flet ($x439 (= gtINDEX54 (select gtFIELD__bitsForTID0__gtAGG____anonstruct_D_Work_4 gtINDEX53)))
(flet ($x435 (= gtINDEX52 (select gtFIELD__bitsForTID0__gtAGG____anonstruct_D_Work_4 gtINDEX51)))
(flet ($x431 (= gtINDEX50 (select gtFIELD__bitsForTID0__gtAGG____anonstruct_D_Work_4 gtINDEX49)))
(flet ($x425 (= gtINDEX46 (select gtFIELD__bitsForTID0__gtAGG____anonstruct_D_Work_4 gtINDEX45)))
(flet ($x421 (= gtINDEX44 (select gtFIELD__bitsForTID0__gtAGG____anonstruct_D_Work_4 gtINDEX43)))
(flet ($x417 (= gtINDEX42 (select gtFIELD__bitsForTID0__gtAGG____anonstruct_D_Work_4 gtINDEX41)))
(flet ($x412 (= gtINDEX39 (select gtFIELD__bitsForTID0__gtAGG____anonstruct_D_Work_4 gtINDEX38)))
(flet ($x408 (= gtINDEX37 (select gtFIELD__bitsForTID0__gtAGG____anonstruct_D_Work_4 gtINDEX36)))
(flet ($x404 (= gtINDEX35 (select gtFIELD__bitsForTID0__gtAGG____anonstruct_D_Work_4 gtINDEX34)))
(flet ($x400 (= gtINDEX33 (select gtFIELD__bitsForTID0__gtAGG____anonstruct_D_Work_4 gtINDEX32)))
(flet ($x396 (= gtINDEX31 (select gtFIELD__bitsForTID0__gtAGG____anonstruct_D_Work_4 gtINDEX30)))
(flet ($x392 (= gtINDEX29 (select gtFIELD__bitsForTID0__gtAGG____anonstruct_D_Work_4 gtINDEX28)))
(flet ($x388 (= gtINDEX27 (select gtFIELD__bitsForTID0__gtAGG____anonstruct_D_Work_4 gtINDEX26)))
(flet ($x384 (= gtINDEX25 (select gtFIELD__bitsForTID0__gtAGG____anonstruct_D_Work_4 gtINDEX24)))
(flet ($x380 (= gtINDEX23 (select gtFIELD__bitsForTID0__gtAGG____anonstruct_D_Work_4 gtINDEX22)))
(flet ($x376 (= gtINDEX21 (select gtFIELD__bitsForTID0__gtAGG____anonstruct_D_Work_4 gtINDEX20)))
(flet ($x371 (= gtINDEX18 (select gtFIELD__bitsForTID0__gtAGG____anonstruct_D_Work_4 gtINDEX17)))
(flet ($x367 (= gtINDEX16 (select gtFIELD__bitsForTID0__gtAGG____anonstruct_D_Work_4 gtINDEX15)))
(flet ($x363 (= gtINDEX14 (select gtFIELD__bitsForTID0__gtAGG____anonstruct_D_Work_4 gtINDEX13)))
(flet ($x359 (= gtINDEX12 (select gtFIELD__bitsForTID0__gtAGG____anonstruct_D_Work_4 gtINDEX11)))
(flet ($x355 (= gtINDEX10 (select gtFIELD__bitsForTID0__gtAGG____anonstruct_D_Work_4 gtINDEX9)))
(let (?x330 (extract[0:0] bv1[32]))
(let (?x340 (store gtFIELD__is_Eng__gtAGG____anonstruct_bitsForTID0_5_1_ gtINDEX102 ?x330))
(flet ($x667 (iff constraint69 (= gtFIELD__is_Eng__gtAGG____anonstruct_bitsForTID0_5_2_ ?x340)))
(let (?x336 (select gtFIELD__is_Eng__gtAGG____anonstruct_bitsForTID0_5_1_ gtINDEX100))
(let (?x331 (store gtFIELD__is_Eng__gtAGG____anonstruct_bitsForTID0_5 gtINDEX98 ?x330))
(flet ($x661 (iff constraint66 (= gtFIELD__is_Eng__gtAGG____anonstruct_bitsForTID0_5_1_ ?x331)))
(let (?x327 (zero_extend[31] (select gtFIELD__is_Eng__gtAGG____anonstruct_bitsForTID0_5 gtINDEX96)))
(let (?x323 (store gtFIELD__sent__gtAGG____anonstruct_D_Work_4_1_ gtINDEX94 bv0[32]))
(flet ($x657 (iff constraint64 (= gtFIELD__sent__gtAGG____anonstruct_D_Work_4_2_ ?x323)))
(let (?x196 (bvmul bv4294967295[32] bv1[32]))
(flet ($x321 (= (select gtFIELD__sent__gtAGG____anonstruct_D_Work_4_1_ gtINDEX93) ?x196))
(flet ($x317 (= (select gtFIELD__sent__gtAGG____anonstruct_D_Work_4_1_ gtINDEX92) bv9[32]))
(flet ($x312 (= (select gtFIELD__sent__gtAGG____anonstruct_D_Work_4_1_ gtINDEX91) bv4[32]))
(let (?x308 (zero_extend[31] (select gtFIELD__is_Eng__gtAGG____anonstruct_bitsForTID0_5 gtINDEX90)))
(let (?x302 (select gtFIELD__is_active_Eng__gtAGG____anonstruct_bitsForTID0_5 gtINDEX88))
(let (?x296 (select gtFIELD__is_active_PURI__gtAGG____anonstruct_bitsForTID0_5 gtINDEX86))
(flet ($x293 (= (select gtFIELD__sent__gtAGG____anonstruct_D_Work_4_1_ gtINDEX84) bv0[32]))
(let (?x288 (select gtFIELD__is_PVRP__gtAGG____anonstruct_bitsForTID0_5 gtINDEX83))
(let (?x283 (select gtFIELD__is_PVRP__gtAGG____anonstruct_bitsForTID0_5 gtINDEX81))
(let (?x278 (select gtFIELD__is_PVRP__gtAGG____anonstruct_bitsForTID0_5 gtINDEX79))
(let (?x273 (select gtFIELD__is_active_PVRP__gtAGG____anonstruct_bitsForTID0_5 gtINDEX77))
(let (?x270 (store gtFIELD__temporalCounter_i3__gtAGG____anonstruct_D_Work_4_1_ gtINDEX75 bv0[32]))
(flet ($x633 (iff constraint52 (= gtFIELD__temporalCounter_i3__gtAGG____anonstruct_D_Work_4_2_ ?x270)))
(let (?x267 (store gtFIELD__is_PPVARP__gtAGG____anonstruct_bitsForTID0_5 gtINDEX74 (extract[1:0] bv2[32])))
(flet ($x631 (iff constraint51 (= gtFIELD__is_PPVARP__gtAGG____anonstruct_bitsForTID0_5_1_ ?x267)))
(flet ($x264 (= gtFIELD__n_t_b__gtAGG____anonstruct_D_Work_4_1_ (store gtFIELD__n_t_b__gtAGG____anonstruct_D_Work_4 gtINDEX72 bv0[32])))
(let (?x257 (select gtFIELD__is_PPVARP__gtAGG____anonstruct_bitsForTID0_5 gtINDEX71))
(let (?x252 (select gtFIELD__is_active_PPVARP__gtAGG____anonstruct_bitsForTID0_5 gtINDEX69))
(let (?x135 (extract[1:0] bv0[32]))
(let (?x249 (store gtFIELD__is_PLRI__gtAGG____anonstruct_bitsForTID0_5_1_ gtINDEX67 ?x135))
(flet ($x619 (iff constraint45 (= gtFIELD__is_PLRI__gtAGG____anonstruct_bitsForTID0_5_2_ ?x249)))
(let (?x244 (select gtFIELD__is_PLRI__gtAGG____anonstruct_bitsForTID0_5_1_ gtINDEX65))
(let (?x239 (select gtFIELD__is_PLRI__gtAGG____anonstruct_bitsForTID0_5_1_ gtINDEX63))
(let (?x234 (select gtFIELD__is_active_PLRI__gtAGG____anonstruct_bitsForTID0_5 gtINDEX61))
(flet ($x231 (= (select gtFIELD__sent__gtAGG____anonstruct_D_Work_4_1_ gtINDEX59) bv0[32]))
(let (?x226 (select gtFIELD__is_PAVI__gtAGG____anonstruct_bitsForTID0_5 gtINDEX58))
(let (?x221 (select gtFIELD__is_PAVI__gtAGG____anonstruct_bitsForTID0_5 gtINDEX56))
(let (?x216 (select gtFIELD__is_PAVI__gtAGG____anonstruct_bitsForTID0_5 gtINDEX54))
(let (?x211 (select gtFIELD__is_PAVI__gtAGG____anonstruct_bitsForTID0_5 gtINDEX52))
(let (?x206 (select gtFIELD__is_active_PAVI__gtAGG____anonstruct_bitsForTID0_5 gtINDEX50))
(flet ($x198 (= gtFIELD__sent__gtAGG____anonstruct_D_Work_4_1_ (store gtFIELD__sent__gtAGG____anonstruct_D_Work_4 gtINDEX48 ?x196)))
(flet ($x194 (= (select gtFIELD__sent__gtAGG____anonstruct_D_Work_4 gtINDEX47) bv4[32]))
(let (?x190 (zero_extend[31] (select gtFIELD__is_Eng__gtAGG____anonstruct_bitsForTID0_5 gtINDEX46)))
(let (?x184 (select gtFIELD__is_active_Eng__gtAGG____anonstruct_bitsForTID0_5 gtINDEX44))
(let (?x178 (select gtFIELD__is_active_PURI__gtAGG____anonstruct_bitsForTID0_5 gtINDEX42))
(flet ($x175 (= (select gtFIELD__sent__gtAGG____anonstruct_D_Work_4 gtINDEX40) bv0[32]))
(let (?x170 (select gtFIELD__is_PVRP__gtAGG____anonstruct_bitsForTID0_5 gtINDEX39))
(let (?x165 (select gtFIELD__is_PVRP__gtAGG____anonstruct_bitsForTID0_5 gtINDEX37))
(let (?x160 (select gtFIELD__is_PVRP__gtAGG____anonstruct_bitsForTID0_5 gtINDEX35))
(let (?x155 (select gtFIELD__is_active_PVRP__gtAGG____anonstruct_bitsForTID0_5 gtINDEX33))
(let (?x144 (select gtFIELD__is_PPVARP__gtAGG____anonstruct_bitsForTID0_5 gtINDEX31))
(let (?x139 (select gtFIELD__is_active_PPVARP__gtAGG____anonstruct_bitsForTID0_5 gtINDEX29))
(let (?x136 (store gtFIELD__is_PLRI__gtAGG____anonstruct_bitsForTID0_5 gtINDEX27 ?x135))
(flet ($x563 (iff constraint17 (= gtFIELD__is_PLRI__gtAGG____anonstruct_bitsForTID0_5_1_ ?x136)))
(let (?x130 (select gtFIELD__is_PLRI__gtAGG____anonstruct_bitsForTID0_5 gtINDEX25))
(let (?x125 (select gtFIELD__is_PLRI__gtAGG____anonstruct_bitsForTID0_5 gtINDEX23))
(let (?x120 (select gtFIELD__is_active_PLRI__gtAGG____anonstruct_bitsForTID0_5 gtINDEX21))
(flet ($x117 (= (select gtFIELD__sent__gtAGG____anonstruct_D_Work_4 gtINDEX19) bv0[32]))
(let (?x111 (select gtFIELD__is_PAVI__gtAGG____anonstruct_bitsForTID0_5 gtINDEX18))
(let (?x105 (select gtFIELD__is_PAVI__gtAGG____anonstruct_bitsForTID0_5 gtINDEX16))
(let (?x99 (select gtFIELD__is_PAVI__gtAGG____anonstruct_bitsForTID0_5 gtINDEX14))
(let (?x94 (select gtFIELD__is_PAVI__gtAGG____anonstruct_bitsForTID0_5 gtINDEX12))
(let (?x88 (select gtFIELD__is_active_PAVI__gtAGG____anonstruct_bitsForTID0_5 gtINDEX10))
(let (?x84 (select gtFIELD__temporalCounter_i5__gtAGG____anonstruct_D_Work_4 gtINDEX8))
(let (?x80 (select gtFIELD__temporalCounter_i4__gtAGG____anonstruct_D_Work_4 gtINDEX7))
(let (?x75 (select gtFIELD__temporalCounter_i3__gtAGG____anonstruct_D_Work_4 gtINDEX5))
(let (?x77 (store gtFIELD__temporalCounter_i3__gtAGG____anonstruct_D_Work_4 gtINDEX6 (bvadd ?x75 bv1[32])))
(flet ($x539 (iff constraint5 (= gtFIELD__temporalCounter_i3__gtAGG____anonstruct_D_Work_4_1_ ?x77)))
(let (?x71 (select gtFIELD__temporalCounter_i3__gtAGG____anonstruct_D_Work_4 gtINDEX4))
(let (?x67 (select gtFIELD__temporalCounter_i2__gtAGG____anonstruct_D_Work_4 gtINDEX3))
(let (?x61 (select gtFIELD__temporalCounter_i1__gtAGG____anonstruct_D_Work_4 gtINDEX1))
(let (?x64 (store gtFIELD__temporalCounter_i1__gtAGG____anonstruct_D_Work_4 gtINDEX2 (bvadd ?x61 bv1[32])))
(flet ($x533 (iff constraint2 (= gtFIELD__temporalCounter_i1__gtAGG____anonstruct_D_Work_4_1_ ?x64)))
(let (?x56 (select gtFIELD__temporalCounter_i1__gtAGG____anonstruct_D_Work_4 gtINDEX0))
(flet ($x874 (and (iff constraint0 (= sfEvent_ bv8[32])) (iff constraint1 (bvult ?x56 bv4294967295[32])) $x533 (iff constraint3 (not (bvult ?x67 bv4294967295[32]))) (iff constraint4 (bvult ?x71 bv4294967295[32])) $x539 (iff constraint6 (not (bvult ?x80 bv4294967295[32]))) (iff constraint7 (not (bvult ?x84 bv4294967295[32]))) (iff constraint8 (not (= (zero_extend[31] ?x88) bv0[32]))) (iff constraint9 (not (= (zero_extend[29] ?x94) bv1[32]))) (iff constraint10 (not (= (zero_extend[29] ?x99) bv2[32]))) (iff constraint11 (not (= (zero_extend[29] ?x105) bv3[32]))) (iff constraint12 (= (zero_extend[29] ?x111) bv4[32])) (iff constraint13 (not $x117)) (iff constraint14 (not (= (zero_extend[31] ?x120) bv0[32]))) (iff constraint15 (not (= (zero_extend[30] ?x125) bv1[32]))) (iff constraint16 (not (= (zero_extend[30] ?x130) bv2[32]))) $x563 (iff constraint18 (not (= (zero_extend[31] ?x139) bv0[32]))) (iff constraint19 (= (zero_extend[30] ?x144) bv1[32])) (iff constraint20 (not (= sfEvent_ bv4[32]))) (iff constraint21 (not (= sfEvent_ bv5[32]))) (iff constraint22 (not (= sfEvent_ bv1[32]))) (iff constraint23 (not (= (zero_extend[31] ?x155) bv0[32]))) (iff constraint24 (not (= (zero_extend[30] ?x160) bv1[32]))) (iff constraint25 (not (= (zero_extend[30] ?x165) bv2[32]))) (iff constraint26 (= (zero_extend[30] ?x170) bv3[32])) (iff constraint27 (not $x175)) (iff constraint28 (not (not (= (zero_extend[31] ?x178) bv0[32])))) (iff constraint29 (not (= (zero_extend[31] ?x184) bv0[32]))) (iff constraint30 (= ?x190 bv1[32])) (iff constraint31 $x194) (iff constraint32 $x198) (iff constraint33 (= sf_previousEvent_1_ sfEvent_)) (iff constraint34 (= sfEvent__1_ bv5[32])) (iff constraint35 (not (= sfEvent__1_ bv8[32]))) (iff constraint36 (not (= (zero_extend[31] ?x206) bv0[32]))) (iff constraint37 (not (= (zero_extend[29] ?x211) bv1[32]))) (iff constraint38 (not (= (zero_extend[29] ?x216) bv2[32]))) (iff constraint39 (not (= (zero_extend[29] ?x221) bv3[32]))) (iff constraint40 (= (zero_extend[29] ?x226) bv4[32])) (iff constraint41 (not $x231)) (iff constraint42 (not (= (zero_extend[31] ?x234) bv0[32]))) (iff constraint43 (not (= (zero_extend[30] ?x239) bv1[32]))) (iff constraint44 (not (= (zero_extend[30] ?x244) bv2[32]))) $x619 (iff constraint46 (not (= (zero_extend[31] ?x252) bv0[32]))) (iff constraint47 (= (zero_extend[30] ?x257) bv1[32])) (iff constraint48 (not (= sfEvent__1_ bv4[32]))) (iff constraint49 (= sfEvent__1_ bv5[32])) (iff constraint50 $x264) $x631 $x633 (iff constraint53 (not (= (zero_extend[31] ?x273) bv0[32]))) (iff constraint54 (not (= (zero_extend[30] ?x278) bv1[32]))) (iff constraint55 (not (= (zero_extend[30] ?x283) bv2[32]))) (iff constraint56 (= (zero_extend[30] ?x288) bv3[32])) (iff constraint57 (not $x293)) (iff constraint58 (not (not (= (zero_extend[31] ?x296) bv0[32])))) (iff constraint59 (not (= (zero_extend[31] ?x302) bv0[32]))) (iff constraint60 (= ?x308 bv1[32])) (iff constraint61 (not $x312)) (iff constraint62 (not $x317)) (iff constraint63 $x321) $x657 (iff constraint65 (= ?x327 bv1[32])) $x661 (iff constraint67 (= sfEvent__2_ sf_previousEvent_1_)) (iff constraint68 (= (zero_extend[31] ?x336) bv1[32])) $x667 (iff constraint70 (= gtINDEX0 gtAGG__rtDWork)) (iff constraint71 (= gtINDEX1 gtAGG__rtDWork)) (iff constraint72 (= gtINDEX2 gtAGG__rtDWork)) (iff constraint73 (= gtINDEX3 gtAGG__rtDWork)) (iff constraint74 (= gtINDEX4 gtAGG__rtDWork)) (iff constraint75 (= gtINDEX5 gtAGG__rtDWork)) (iff constraint76 (= gtINDEX6 gtAGG__rtDWork)) (iff constraint77 (= gtINDEX7 gtAGG__rtDWork)) (iff constraint78 (= gtINDEX8 gtAGG__rtDWork)) (iff constraint79 (= gtINDEX9 gtAGG__rtDWork)) (iff constraint80 $x355) (iff constraint81 (= gtINDEX11 gtAGG__rtDWork)) (iff constraint82 $x359) (iff constraint83 (= gtINDEX13 gtAGG__rtDWork)) (iff constraint84 $x363) (iff constraint85 (= gtINDEX15 gtAGG__rtDWork)) (iff constraint86 $x367) (iff constraint87 (= gtINDEX17 gtAGG__rtDWork)) (iff constraint88 $x371) (iff constraint89 (= gtINDEX19 gtAGG__rtDWork)) (iff constraint90 (= gtINDEX20 gtAGG__rtDWork)) (iff constraint91 $x376) (iff constraint92 (= gtINDEX22 gtAGG__rtDWork)) (iff constraint93 $x380) (iff constraint94 (= gtINDEX24 gtAGG__rtDWork)) (iff constraint95 $x384) (iff constraint96 (= gtINDEX26 gtAGG__rtDWork)) (iff constraint97 $x388) (iff constraint98 (= gtINDEX28 gtAGG__rtDWork)) (iff constraint99 $x392) (iff constraint100 (= gtINDEX30 gtAGG__rtDWork)) (iff constraint101 $x396) (iff constraint102 (= gtINDEX32 gtAGG__rtDWork)) (iff constraint103 $x400) (iff constraint104 (= gtINDEX34 gtAGG__rtDWork)) (iff constraint105 $x404) (iff constraint106 (= gtINDEX36 gtAGG__rtDWork)) (iff constraint107 $x408) (iff constraint108 (= gtINDEX38 gtAGG__rtDWork)) (iff constraint109 $x412) (iff constraint110 (= gtINDEX40 gtAGG__rtDWork)) (iff constraint111 (= gtINDEX41 gtAGG__rtDWork)) (iff constraint112 $x417) (iff constraint113 (= gtINDEX43 gtAGG__rtDWork)) (iff constraint114 $x421) (iff constraint115 (= gtINDEX45 gtAGG__rtDWork)) (iff constraint116 $x425) (iff constraint117 (= gtINDEX47 gtAGG__rtDWork)) (iff constraint118 (= gtINDEX48 gtAGG__rtDWork)) (iff constraint119 (= gtINDEX49 gtAGG__rtDWork)) (iff constraint120 $x431) (iff constraint121 (= gtINDEX51 gtAGG__rtDWork)) (iff constraint122 $x435) (iff constraint123 (= gtINDEX53 gtAGG__rtDWork)) (iff constraint124 $x439) (iff constraint125 (= gtINDEX55 gtAGG__rtDWork)) (iff constraint126 $x443) (iff constraint127 (= gtINDEX57 gtAGG__rtDWork)) (iff constraint128 $x447) (iff constraint129 (= gtINDEX59 gtAGG__rtDWork)) (iff constraint130 (= gtINDEX60 gtAGG__rtDWork)) (iff constraint131 $x452) (iff constraint132 (= gtINDEX62 gtAGG__rtDWork)) (iff constraint133 $x456) (iff constraint134 (= gtINDEX64 gtAGG__rtDWork)) (iff constraint135 $x460) (iff constraint136 (= gtINDEX66 gtAGG__rtDWork)) (iff constraint137 $x464) (iff constraint138 (= gtINDEX68 gtAGG__rtDWork)) (iff constraint139 $x468) (iff constraint140 (= gtINDEX70 gtAGG__rtDWork)) (iff constraint141 $x472) (iff constraint142 (= gtINDEX72 gtAGG__rtDWork)) (iff constraint143 (= gtINDEX73 gtAGG__rtDWork)) (iff constraint144 $x477) (iff constraint145 (= gtINDEX75 gtAGG__rtDWork)) (iff constraint146 (= gtINDEX76 gtAGG__rtDWork)) (iff constraint147 $x482) (iff constraint148 (= gtINDEX78 gtAGG__rtDWork)) (iff constraint149 $x486) (iff constraint150 (= gtINDEX80 gtAGG__rtDWork)) (iff constraint151 $x490) (iff constraint152 (= gtINDEX82 gtAGG__rtDWork)) (iff constraint153 $x494) (iff constraint154 (= gtINDEX84 gtAGG__rtDWork)) (iff constraint155 (= gtINDEX85 gtAGG__rtDWork)) (iff constraint156 $x499) (iff constraint157 (= gtINDEX87 gtAGG__rtDWork)) (iff constraint158 $x503) (iff constraint159 (= gtINDEX89 gtAGG__rtDWork)) (iff constraint160 $x507) (iff constraint161 (= gtINDEX91 gtAGG__rtDWork)) (iff constraint162 (= gtINDEX92 gtAGG__rtDWork)) (iff constraint163 (= gtINDEX93 gtAGG__rtDWork)) (iff constraint164 (= gtINDEX94 gtAGG__rtDWork)) (iff constraint165 (= gtINDEX95 gtAGG__rtDWork)) (iff constraint166 $x515) (iff constraint167 (= gtINDEX97 gtAGG__rtDWork)) (iff constraint168 $x519) (iff constraint169 (= gtINDEX99 gtAGG__rtDWork)) (iff constraint170 $x523) (iff constraint171 (= gtINDEX101 gtAGG__rtDWork)) (iff constraint172 (= gtINDEX102 ?x526))))
(and $x874 $x875))))))))))))))))))))))))))))))))))))))))))))))))))))))))))))))))))))))))))))))))))))))))))))))))))))))))))))))))))))))
)
